
Gurobi 11.0.3 (linux64) logging started Mon Aug 25 13:28:23 2025

Set parameter LogFile to value "/home/yihong/Coding/OR_SUC/SUC_epstheta_results_bigM100000_thread4/case24_ieee_rts_theta0.1_epsilon0.1_gurobi_seed100000_num_gen100_N_WDR50_load_scaling_factor1_ori_eps_T4quadra_cost_bc1.03.txt"
Set parameter TimeLimit to value 3600
Gurobi Optimizer version 11.0.3 build v11.0.3rc0 (linux64 - "Ubuntu 20.04.6 LTS")

CPU model: AMD EPYC 7532 32-Core Processor, instruction set [SSE2|AVX|AVX2]
Thread count: 64 physical cores, 128 logical processors, using up to 4 threads

Academic license 2399124 - for non-commercial use only - registered to yi___@ed.ac.uk
Optimize a model with 9128 rows, 5011 columns and 217718 nonzeros
Model fingerprint: 0x3bf4a7d3
Model has 400 quadratic constraints
Variable types: 4611 continuous, 400 integer (400 binary)
Coefficient statistics:
  Matrix range     [3e-04, 3e+03]
  QMatrix range    [2e-03, 8e-03]
  QLMatrix range   [6e-01, 6e+01]
  Objective range  [1e+00, 1e+00]
  Bounds range     [1e+00, 1e+00]
  RHS range        [1e+00, 9e+03]
Presolve removed 7575 rows and 2260 columns
Presolve time: 0.06s
Presolved: 1553 rows, 2751 columns, 9180 nonzeros
Presolved model has 400 quadratic constraint(s)
Variable types: 2351 continuous, 400 integer (400 binary)

Root relaxation: objective 4.283851e+03, 1170 iterations, 0.01 seconds (0.02 work units)

    Nodes    |    Current Node    |     Objective Bounds      |     Work
 Expl Unexpl |  Obj  Depth IntInf | Incumbent    BestBd   Gap | It/Node Time

     0     0 4283.85075    0    4          - 4283.85075      -     -    0s
H    0     0                    139285.60144 4283.85075  96.9%     -    0s
H    0     0                    134663.18664 4283.85075  96.8%     -    0s
     0     0 67822.7004    0    4 134663.187 67822.7004  49.6%     -    0s
     0     0 122709.117    0    4 134663.187 122709.117  8.88%     -    0s
     0     0 122724.567    0    4 134663.187 122724.567  8.87%     -    0s
H    0     0                    123046.73338 122725.573  0.26%     -    0s
     0     0 122725.573    0    4 123046.733 122725.573  0.26%     -    0s
     0     0 122725.611    0    4 123046.733 122725.611  0.26%     -    0s
     0     2 122725.611    0    4 123046.733 122725.611  0.26%     -    0s
H   16    18                    122743.01346 122728.211  0.01%  12.1    0s
*   16    18               5    122743.01346 122728.211  0.01%  12.3    0s

Cutting planes:
  Implied bound: 2

Explored 19 nodes (2867 simplex iterations) in 0.50 seconds (0.41 work units)
Thread count was 4 (of 128 available processors)

Solution count 5: 122743 122743 123047 ... 139286

Optimal solution found (tolerance 1.00e-03)
Warning: max constraint violation (6.6443e-07) exceeds tolerance
Best objective 1.227430134621e+05, best bound 1.227282108677e+05, gap 0.0121%

Gurobi 11.0.3 (linux64) logging started Mon Aug 25 13:28:24 2025

Set parameter LogFile to value "/home/yihong/Coding/OR_SUC/SUC_epstheta_results_bigM100000_thread4/case24_ieee_rts_theta0.1_epsilon0.1_gurobi_seed100000_num_gen100_N_WDR50_load_scaling_factor1_ori_eps_T4quadra_cost_bc1.03.txt"
Set parameter TimeLimit to value 3600
Gurobi Optimizer version 11.0.3 build v11.0.3rc0 (linux64 - "Ubuntu 20.04.6 LTS")

CPU model: AMD EPYC 7532 32-Core Processor, instruction set [SSE2|AVX|AVX2]
Thread count: 64 physical cores, 128 logical processors, using up to 4 threads

Academic license 2399124 - for non-commercial use only - registered to yi___@ed.ac.uk
Optimize a model with 22856 rows, 5012 columns and 1703251 nonzeros
Model fingerprint: 0x4fbe79e2
Model has 401 quadratic constraints
Variable types: 4612 continuous, 400 integer (400 binary)
Coefficient statistics:
  Matrix range     [3e-04, 3e+03]
  QMatrix range    [2e-03, 5e+01]
  QLMatrix range   [6e-01, 6e+01]
  Objective range  [1e+00, 1e+00]
  Bounds range     [1e-01, 1e+00]
  RHS range        [8e-02, 1e+05]
  QRHS range       [5e+00, 5e+00]
Presolve removed 6852 rows and 1939 columns
Presolve time: 1.34s
Presolved: 16406 rows, 3474 columns, 344709 nonzeros
Presolved model has 400 quadratic constraint(s)
Presolved model has 1 bilinear constraint(s)
Warning: Model contains variables with very large bounds participating
         in product terms.
         Presolve was not able to compute smaller bounds for these variables.
         Consider bounding these variables or reformulating the model.


Solving non-convex MIQCP

Variable types: 3070 continuous, 404 integer (404 binary)

Root relaxation: objective 0.000000e+00, 2062 iterations, 0.39 seconds (1.10 work units)

    Nodes    |    Current Node    |     Objective Bounds      |     Work
 Expl Unexpl |  Obj  Depth IntInf | Incumbent    BestBd   Gap | It/Node Time

     0     0    0.00000    0    1          -    0.00000      -     -    3s
H    0     0                       0.0815973    0.00000   100%     -    6s
     0     0    0.00000    0    1    0.08160    0.00000   100%     -    6s
H    0     0                       0.0588419    0.00000   100%     -    8s
H    0     0                       0.0342705    0.00000   100%     -   12s
H    0     0                       0.0300126    0.02419  19.4%     -   12s
     0     0    0.02601    0   17    0.03001    0.02601  13.3%     -   12s
     0     0    0.02621    0   13    0.03001    0.02621  12.7%     -   13s
H    0     0                       0.0296941    0.02623  11.7%     -   13s
     0     0    0.02629    0   13    0.02969    0.02629  11.5%     -   13s
     0     0    0.02629    0   13    0.02969    0.02629  11.5%     -   13s
     0     0    0.02631    0   13    0.02969    0.02631  11.4%     -   13s
     0     0    0.02631    0   13    0.02969    0.02631  11.4%     -   14s
     0     0    0.02631    0   13    0.02969    0.02631  11.4%     -   14s
     0     0    0.02631    0   13    0.02969    0.02631  11.4%     -   15s
     0     0    0.02631    0   13    0.02969    0.02631  11.4%     -   15s
     0     2    0.02631    0   13    0.02969    0.02631  11.4%     -   16s
   119   102    0.02827   29    -    0.02969    0.02634  11.3%   7.4  706s
*  176   117              34       0.0275772    0.02634  4.49%  14.6  707s
*  203   119              39       0.0275772    0.02635  4.45%  13.7  707s
   496   228 infeasible    8         0.02758    0.02671  3.16%  12.1  710s
*  620   222              17       0.0270478    0.02682  0.86%  13.6 1609s
   652   197     cutoff   11         0.02705    0.02684  0.77%  13.3 1610s
*  923     0              20       0.0268533    0.02685  0.00%  10.8 2287s

Cutting planes:
  Gomory: 8
  Implied bound: 15
  MIR: 6
  Flow cover: 1
  RLT: 5

Explored 927 nodes (14033 simplex iterations) in 2287.51 seconds (1637.67 work units)
Thread count was 4 (of 128 available processors)

Solution count 9: 0.0268533 0.0270478 0.0275772 ... 0.0815973

Optimal solution found (tolerance 1.00e-03)
Best objective 2.685330195155e-02, best bound 2.685330195155e-02, gap 0.0000%
